Read MPS format model from file dat/rmp/DER_48_2048_20.mps
Reading time = 0.11 seconds
: 2096 rows, 7312 columns, 311785 nonzeros
Gurobi Optimizer version 9.0.0 build v9.0.0rc2 (linux64)
Optimize a model with 2096 rows, 7312 columns and 311785 nonzeros
Model fingerprint: 0xd2d165ed
Coefficient statistics:
  Matrix range     [3e-04, 1e+01]
  Objective range  [4e-01, 1e+03]
  Bounds range     [1e+04, 1e+04]
  RHS range        [1e+00, 1e+00]
Ordering time: 0.00s

Barrier statistics:
 AA' NZ     : 9.446e+04
 Factor NZ  : 1.174e+05 (roughly 5 MBytes of memory)
 Factor Ops : 6.916e+06 (less than 1 second per iteration)
 Threads    : 1

                  Objective                Residual
Iter       Primal          Dual         Primal    Dual     Compl     Time
   0   4.78961734e+08 -6.63390251e+07  1.86e+06 3.78e-02  5.95e+05     0s
   1   2.42868072e+07 -1.38173694e+07  8.31e+04 5.46e-12  2.82e+04     0s
   2   2.47493500e+06 -4.76148061e+06  8.75e+03 3.64e-12  3.40e+03     0s
   3   5.83660037e+04 -2.77361126e+06  1.44e+02 2.73e-12  4.18e+02     0s
   4   6.29756396e+03 -5.93588851e+04  1.62e-11 3.64e-12  8.92e+00     0s
   5   6.20374721e+03  2.09019244e+03  4.65e-11 3.64e-12  5.59e-01     0s
   6   6.17077647e+03  5.38364700e+03  3.98e-11 9.09e-12  1.07e-01     0s
   7   6.12375702e+03  5.90271818e+03  1.44e-11 3.64e-12  3.00e-02     0s
   8   6.07893421e+03  6.01585523e+03  1.87e-11 2.73e-12  8.57e-03     0s
   9   6.05378832e+03  6.03526982e+03  7.09e-11 2.73e-12  2.52e-03     0s
  10   6.04736463e+03  6.03954955e+03  1.79e-10 3.64e-12  1.06e-03     0s
  11   6.04541783e+03  6.04108663e+03  1.83e-10 1.82e-12  5.88e-04     0s
  12   6.04452776e+03  6.04219776e+03  3.14e-10 1.82e-12  3.17e-04     0s
  13   6.04381094e+03  6.04257052e+03  2.88e-10 1.82e-12  1.69e-04     0s
  14   6.04345025e+03  6.04294530e+03  4.08e-10 1.82e-12  6.86e-05     0s
  15   6.04333303e+03  6.04303697e+03  2.70e-10 1.82e-12  4.02e-05     0s
  16   6.04328497e+03  6.04306709e+03  6.10e-10 1.82e-12  2.96e-05     0s
  17   6.04325438e+03  6.04308223e+03  4.06e-10 1.82e-12  2.34e-05     0s
  18   6.04319688e+03  6.04312400e+03  8.00e-10 1.82e-12  9.90e-06     0s
  19   6.04314840e+03  6.04314132e+03  1.27e-09 1.82e-12  9.62e-07     0s
  20   6.04314421e+03  6.04314370e+03  2.03e-09 3.64e-12  6.91e-08     0s
  21   6.04314384e+03  6.04314381e+03  6.80e-08 2.73e-12  3.40e-09     0s

Barrier solved model in 21 iterations and 0.49 seconds
Optimal objective 6.04314384e+03

Solve time: 0.495279023
Barrier iterations: 21
